solving instance mcf arcs c59 3 6 square
presolving:
(round 1, fast)       717 del vars, 717 del conss, 0 add conss, 687 chg bounds, 0 chg sides, 0 chg coeffs, 0 upgd conss, 0 impls, 0 clqs
   (0.5s) symmetry computation started: requiring (bin +, int +, cont +), (fixed: bin -, int -, cont -)
   (0.6s) no symmetry present (symcode time: 0.03)
presolving (2 rounds: 2 fast, 1 medium, 1 exhaustive):
 747 deleted vars, 717 deleted constraints, 0 added constraints, 687 tightened bounds, 0 added holes, 0 changed sides, 0 changed coefficients
 0 implications, 0 cliques
presolved problem has 70074 variables (0 bin, 0 int, 0 impl, 70074 cont) and 4404 constraints
   3717 constraints of type <linear>
    687 constraints of type <nonlinear>
Presolving Time: 0.48

 time | node  | left  |LP iter|LP it/n|mem/heur|mdpt |vars |cons |rows |cuts |sepa|confs|strbr|  dualbound   | primalbound  |  gap   | compl. 
  156s|     1 |     0 | 73668 |     - |   390M |   0 |  71k|4404 |6465 |   0 |  0 |   0 |   0 | 2.064581e+03 |      --      |    Inf | unknown
L 300s|     1 |     0 | 73668 |     - |undercov|   0 |  71k|4404 |6465 |   0 |  0 |   0 |   0 | 2.064581e+03 | 6.975399e+03 | 237.86%| unknown
L 385s|     1 |     0 | 73668 |     - |undercov|   0 |  71k|4404 |6465 |   0 |  0 |   0 |   0 | 2.064581e+03 | 5.780688e+03 | 179.99%| unknown
  514s|     1 |     0 | 88801 |     - |   421M |   0 |  71k|4404 |7130 | 665 |  1 |   0 |   0 | 4.862363e+03 | 5.780688e+03 |  18.89%| unknown
  514s|     1 |     0 | 88801 |     - |   421M |   0 |  71k|4404 |7130 | 665 |  1 |   0 |   0 | 4.862363e+03 | 5.780688e+03 |  18.89%| unknown
  547s|     1 |     0 | 99794 |     - |   421M |   0 |  71k|4404 |7810 |1345 |  2 |   0 |   0 | 5.556686e+03 | 5.780688e+03 |   4.03%| unknown
  579s|     1 |     0 |109983 |     - |   421M |   0 |  71k|4404 |8489 |2024 |  3 |   0 |   0 | 5.714970e+03 | 5.780688e+03 |   1.15%| unknown
  594s|     1 |     0 |115072 |     - |   422M |   0 |  71k|4404 |9168 |2703 |  4 |   0 |   0 | 5.762711e+03 | 5.780688e+03 |   0.31%| unknown
  604s|     1 |     0 |118693 |     - |   422M |   0 |  71k|4404 |9846 |3381 |  5 |   0 |   0 | 5.775450e+03 | 5.780688e+03 |   0.09%| unknown
  616s|     1 |     0 |122760 |     - |   422M |   0 |  71k|4404 |  10k|4060 |  6 |   0 |   0 | 5.779260e+03 | 5.780688e+03 |   0.02%| unknown
  624s|     1 |     0 |125475 |     - |   422M |   0 |  71k|4404 |  11k|4739 |  7 |   0 |   0 | 5.780268e+03 | 5.780688e+03 |   0.01%| unknown
  634s|     1 |     0 |129052 |     - |   423M |   0 |  71k|4404 |  11k|5414 |  8 |   0 |   0 | 5.780583e+03 | 5.780688e+03 |   0.00%| unknown
  641s|     1 |     0 |131616 |     - |   424M |   0 |  71k|4404 |  12k|6079 |  9 |   0 |   0 | 5.780658e+03 | 5.780688e+03 |   0.00%| unknown
  647s|     1 |     0 |133857 |     - |   425M |   0 |  71k|4404 |  13k|6740 | 10 |   0 |   0 | 5.780680e+03 | 5.780688e+03 |   0.00%| unknown
  652s|     1 |     0 |135890 |     - |   425M |   0 |  71k|4404 |  12k|7356 | 11 |   0 |   0 | 5.780686e+03 | 5.780688e+03 |   0.00%| unknown

SCIP Status        : solving was interrupted [gap limit reached]
Solving Time (sec) : 651.94
Solving Nodes      : 1
Primal Bound       : +5.78068756562335e+03 (3 solutions)
Dual Bound         : +5.78068595371658e+03
Gap                : 0.00 %
primal_bound = 5780.687565623349, dual_bound = 5780.6859537165765, gap = 2.7884343410187324e-5, time = 654.35
